Route #1: 23 14 25 28 24 19 55 45 49 51
Route #2: 
Route #3: 54 3 47 53 21 38 4 34 35 15 43 32 27
Route #4: 11 36 7 50 39 12 16 52
Route #5: 1 46 44 2 10 40 48 18 33 6 17 41
Route #6: 37 22 9 13
Route #7: 30 42 20 29
Route #8: 31 5 8
Route #9: 26
cost 1603.126705331218
